************************************************************************
file with basedata            : j9022_.bas
initial value random generator: 727640258
************************************************************************
projects                      :  1
jobs (incl. supersource/sink ):  92
horizon                       :  500
RESOURCES
  - renewable                 :  4   R
  - nonrenewable              :  0   N
  - doubly constrained        :  0   D
************************************************************************
PROJECT INFORMATION:
pronr.  #jobs rel.date duedate tardcost  MPM-Time
    1     90      0       97       52       97
************************************************************************
PRECEDENCE RELATIONS:
jobnr.    #modes  #successors   successors
   1        1          3           2   3   4
   2        1          3           7   9  11
   3        1          3           5   6  12
   4        1          2           8  22
   5        1          3          33  36  53
   6        1          3          14  15  18
   7        1          3          10  16  77
   8        1          1          89
   9        1          3          13  24  40
  10        1          2          28  39
  11        1          3          19  21  25
  12        1          3          37  46  56
  13        1          3          23  35  42
  14        1          3          17  26  82
  15        1          3          20  27  43
  16        1          2          51  67
  17        1          3          30  32  68
  18        1          3          70  72  89
  19        1          1          74
  20        1          3          44  73  83
  21        1          2          33  47
  22        1          3          26  47  54
  23        1          3          31  34  79
  24        1          1          45
  25        1          1          81
  26        1          1          57
  27        1          3          29  40  58
  28        1          1          34
  29        1          2          39  65
  30        1          2          40  78
  31        1          3          38  45  69
  32        1          2          43  77
  33        1          3          49  57  60
  34        1          1          41
  35        1          3          50  55  69
  36        1          1          64
  37        1          3          48  52  63
  38        1          3          41  50  59
  39        1          2          50  53
  40        1          1          76
  41        1          1          66
  42        1          3          53  65  89
  43        1          2          78  85
  44        1          2          71  80
  45        1          1          72
  46        1          1          47
  47        1          1          77
  48        1          2          51  59
  49        1          1          79
  50        1          1          81
  51        1          2          85  86
  52        1          2          62  65
  53        1          2          62  70
  54        1          1          81
  55        1          2          57  72
  56        1          2          61  70
  57        1          1          66
  58        1          3          66  71  88
  59        1          1          85
  60        1          1          61
  61        1          2          62  64
  62        1          2          67  74
  63        1          2          75  79
  64        1          2          68  75
  65        1          1          76
  66        1          1          91
  67        1          1          69
  68        1          2          71  78
  69        1          2          73  80
  70        1          1          87
  71        1          1          84
  72        1          1          82
  73        1          1          75
  74        1          2          83  84
  75        1          2          76  82
  76        1          1          88
  77        1          1          84
  78        1          1          88
  79        1          2          80  83
  80        1          1          91
  81        1          1          87
  82        1          1          86
  83        1          1          90
  84        1          1          86
  85        1          1          90
  86        1          1          87
  87        1          1          91
  88        1          1          90
  89        1          1          92
  90        1          1          92
  91        1          1          92
  92        1          0        
************************************************************************
REQUESTS/DURATIONS:
jobnr. mode duration  R 1  R 2  R 3  R 4
------------------------------------------------------------------------
  1      1     0       0    0    0    0
  2      1     8       0    2    0    0
  3      1    10       0    1    0    5
  4      1    10       0    7    0    8
  5      1     5       0    7    0    0
  6      1     4       5    0    8    0
  7      1     3       0    4    0    0
  8      1    10       0    0    0    7
  9      1     7       3    0    9    0
 10      1     1       6    5    8    0
 11      1     7       0    1    0    0
 12      1     5       0    1    0    0
 13      1     1       0   10    0    5
 14      1     3      10   10   10    0
 15      1     1       4    0    0    0
 16      1    10       0   10    0    2
 17      1     2       3    8    6    0
 18      1     7       0    0    8    5
 19      1     8       0    3    0    1
 20      1     2       2    0    9    0
 21      1     7       2    7    0    0
 22      1     3       6    3    9   10
 23      1     9       0    0    9    5
 24      1     8       1    8    4    0
 25      1     3       0    0    2    9
 26      1     3       4    6    0    0
 27      1    10       0    0    2    0
 28      1    10       0    5    4    0
 29      1     3       0    5    0    0
 30      1     7       4    5   10    0
 31      1     6       1    0    5    0
 32      1     1       0    5    6    0
 33      1     2       0    0    4    0
 34      1     7       0    3    3    8
 35      1     3       1    0    0    8
 36      1     9       8    0    4    0
 37      1     9       0    0   10    0
 38      1     2       0    8    9    3
 39      1     3       5    6    4    2
 40      1    10       4    0    1    0
 41      1     1       0    0    5    0
 42      1     8       0    7    8    0
 43      1     8       0    4    9    6
 44      1     3      10    0    1    7
 45      1     2       0    0    9    7
 46      1     7       4   10    0    0
 47      1     9       0    6    0    0
 48      1     3       2    0    0    3
 49      1     8      10    3    0    0
 50      1     5       2    5    1    0
 51      1     1       0    0    3    0
 52      1     4       7    0    0    1
 53      1     5       0    5    0    0
 54      1     6       9    6    2    1
 55      1     8       8    0    0    5
 56      1     9      10    0    4    0
 57      1     2       4    4    0    0
 58      1     5       0    0    9    3
 59      1     7       0   10    3    5
 60      1    10       0    2    0    0
 61      1     7       6    6    4    4
 62      1     9       0    7    0    0
 63      1     3       0    7    6    0
 64      1     5      10    0    3    0
 65      1     8       0    4    5    0
 66      1     4       0    0    1    3
 67      1     6      10    0    0    8
 68      1     1       0    6    7    9
 69      1    10       7    4    0    0
 70      1    10       2    0    7    0
 71      1     5      10    1    0    0
 72      1     8       5    8    0    0
 73      1     8       9    0    3    0
 74      1     2       0    0    0    3
 75      1     1       0    0    2    6
 76      1     4       0    5    0    0
 77      1     6       0    3    3    0
 78      1    10       7    0    0    8
 79      1     2       8    5    0    0
 80      1    10       8    2    6    0
 81      1     5       9    2    8    0
 82      1     5       7    0    0    0
 83      1     1       0    0    0    5
 84      1     3       0    0    3   10
 85      1     3       9    6    3    0
 86      1     2       0    0    3   10
 87      1     7       0    9    0    3
 88      1     7       0    0    9    0
 89      1     9       0    1    1    0
 90      1     1       2    4    0    2
 91      1     8       0    0    0    7
 92      1     0       0    0    0    0
************************************************************************
RESOURCEAVAILABILITIES:
  R 1  R 2  R 3  R 4
   31   40   43   28
************************************************************************
